NAME : X_30_seed_123_id_13
TYPE : CVRP
DIMENSION : 237
EDGE_WEIGHT_TYPE : EUC_2D
CAPACITY : 18
NODE_COORD_SECTION
1	0	0
2	186	936
3	56	888
4	942	512
5	349	579
6	182	556
7	617	96
8	231	387
9	713	216
10	318	550
11	469	858
12	861	792
13	446	509
14	138	568
15	393	670
16	308	887
17	211	130
18	564	339
19	711	935
20	226	419
21	455	986
22	223	773
23	736	615
24	771	593
25	350	296
26	370	21
27	700	677
28	355	199
29	886	885
30	878	628
31	768	579
32	32	329
33	187	349
34	319	965
35	716	170
36	991	24
37	878	833
38	488	596
39	852	531
40	452	696
41	888	159
42	11	689
43	997	305
44	932	173
45	431	730
46	201	282
47	886	757
48	881	182
49	662	34
50	670	688
51	828	167
52	407	540
53	994	143
54	214	972
55	665	821
56	897	455
57	259	712
58	770	883
59	926	457
60	560	706
61	309	197
62	743	278
63	626	482
64	310	69
65	556	75
66	350	547
67	780	652
68	281	577
69	626	940
70	114	789
71	264	603
72	751	104
73	201	317
74	881	981
75	81	123
76	17	700
77	347	860
78	986	714
79	316	689
80	195	292
81	555	346
82	615	514
83	410	406
84	628	577
85	938	194
86	103	312
87	349	588
88	903	466
89	492	946
90	728	71
91	492	931
92	492	318
93	412	864
94	217	107
95	826	277
96	580	930
97	640	483
98	986	944
99	660	522
100	65	507
101	833	191
102	266	392
103	129	483
104	259	334
105	721	602
106	375	888
107	93	234
108	71	630
109	850	595
110	49	427
111	286	732
112	465	489
113	340	32
114	649	844
115	958	447
116	909	16
117	893	821
118	465	800
119	267	886
120	575	673
121	712	57
122	94	351
123	125	833
124	312	262
125	691	682
126	1	444
127	348	401
128	536	761
129	38	669
130	45	948
131	699	985
132	699	378
133	720	134
134	990	895
135	906	992
136	206	879
137	18	33
138	107	431
139	545	79
140	667	508
141	413	936
142	294	832
143	212	385
144	297	374
145	106	55
146	617	459
147	40	460
148	948	741
149	952	620
150	13	777
151	550	222
152	461	499
153	257	681
154	688	498
155	676	74
156	548	223
157	595	887
158	395	966
159	389	109
160	373	254
161	229	227
162	198	671
163	480	689
164	419	283
165	182	461
166	131	945
167	395	913
168	50	329
169	459	619
170	572	449
171	803	829
172	393	317
173	363	29
174	571	336
175	277	612
176	376	203
177	544	287
178	79	982
179	25	142
180	94	164
181	329	763
182	368	212
183	166	574
184	310	931
185	87	966
186	343	531
187	4	900
188	948	335
189	432	915
190	279	875
191	259	260
192	648	944
193	310	786
194	674	698
195	747	7
196	603	791
197	416	915
198	346	276
199	856	998
200	203	120
201	254	40
202	858	393
203	700	128
204	243	686
205	958	401
206	259	51
207	402	172
208	591	361
209	901	771
210	229	1
211	190	268
212	131	524
213	637	360
214	371	143
215	336	46
216	667	622
217	481	469
218	473	61
219	569	930
220	279	301
221	83	171
222	191	398
223	715	287
224	857	53
225	453	469
226	311	274
227	204	797
228	746	22
229	636	374
230	57	148
231	572	794
232	261	472
233	145	186
234	496	161
235	924	748
236	120	854
237	439	384
DEMAND_SECTION
1	0
2	1
3	1
4	1
5	1
6	1
7	1
8	1
9	1
10	1
11	1
12	1
13	1
14	1
15	1
16	1
17	1
18	1
19	1
20	1
21	1
22	1
23	1
24	1
25	1
26	1
27	1
28	1
29	1
30	1
31	1
32	1
33	1
34	1
35	1
36	1
37	1
38	1
39	1
40	1
41	1
42	1
43	1
44	1
45	1
46	1
47	1
48	1
49	1
50	1
51	1
52	1
53	1
54	1
55	1
56	1
57	1
58	1
59	1
60	1
61	1
62	1
63	1
64	1
65	1
66	1
67	1
68	1
69	1
70	1
71	1
72	1
73	1
74	1
75	1
76	1
77	1
78	1
79	1
80	1
81	1
82	1
83	1
84	1
85	1
86	1
87	1
88	1
89	1
90	1
91	1
92	1
93	1
94	1
95	1
96	1
97	1
98	1
99	1
100	1
101	1
102	1
103	1
104	1
105	1
106	1
107	1
108	1
109	1
110	1
111	1
112	1
113	1
114	1
115	1
116	1
117	1
118	1
119	1
120	1
121	1
122	1
123	1
124	1
125	1
126	1
127	1
128	1
129	1
130	1
131	1
132	1
133	1
134	1
135	1
136	1
137	1
138	1
139	1
140	1
141	1
142	1
143	1
144	1
145	1
146	1
147	1
148	1
149	1
150	1
151	1
152	1
153	1
154	1
155	1
156	1
157	1
158	1
159	1
160	1
161	1
162	1
163	1
164	1
165	1
166	1
167	1
168	1
169	1
170	1
171	1
172	1
173	1
174	1
175	1
176	1
177	1
178	1
179	1
180	1
181	1
182	1
183	1
184	1
185	1
186	1
187	1
188	1
189	1
190	1
191	1
192	1
193	1
194	1
195	1
196	1
197	1
198	1
199	1
200	1
201	1
202	1
203	1
204	1
205	1
206	1
207	1
208	1
209	1
210	1
211	1
212	1
213	1
214	1
215	1
216	1
217	1
218	1
219	1
220	1
221	1
222	1
223	1
224	1
225	1
226	1
227	1
228	1
229	1
230	1
231	1
232	1
233	1
234	1
235	1
236	1
237	1
DEPOT_SECTION
1
-1
EOF
